NAME : FL417B
TYPE : PDTSP
DIMENSION : 417
EDGE_WEIGHT_TYPE : EUC_2D
NODE_COORD_SECTION
1 1000 2000
2 1200 2000
3 1200 2000
4 1200 2000
5 1100 2000
6 1100 2000
7 1100 2000
8 1000 2000
9 1200 1900
10 1000 1900
11 1200 1900
12 1200 1900
13 1100 1900
14 1300 1900
15 1200 1900
16 1100 1900
17 1200 1900
18 1000 1900
19 1000 1900
20 1100 1900
21 1100 1900
22 980 1900
23 1300 1900
24 1000 1900
25 1000 1900
26 1000 1900
27 1200 1900
28 1100 1900
29 1300 1900
30 1300 1900
31 1100 1900
32 1000 1900
33 1700 1700
34 740 1700
35 1700 1700
36 740 1700
37 1500 1700
38 530 1700
39 1200 1600
40 1600 1500
41 580 1500
42 1100 1400
43 620 1400
44 1000 1400
45 1100 1400
46 750 1400
47 1000 1400
48 590 1400
49 760 1400
50 610 1400
51 750 1300
52 660 1300
53 1300 1200
54 590 1200
55 610 1200
56 1300 1200
57 660 1200
58 1200 1000
59 1100 1000
60 1600 970
61 1000 800
62 1300 800
63 1100 800
64 1100 800
65 1300 790
66 1100 790
67 1100 790
68 1000 790
69 1300 780
70 1100 780
71 1000 780
72 1700 780
73 1200 780
74 1100 780
75 1000 780
76 980 780
77 1200 770
78 1200 770
79 1100 770
80 1100 770
81 1000 770
82 1200 770
83 1200 770
84 1200 770
85 1100 770
86 1100 770
87 1200 760
88 1200 760
89 1300 750
90 1300 750
91 1200 750
92 1000 750
93 1300 750
94 1200 750
95 1200 750
96 1100 740
97 1100 740
98 1000 730
99 1000 730
100 1000 720
101 1000 720
102 1200 560
103 1600 550
104 1200 550
105 1200 540
106 1600 2000
107 1600 2000
108 1600 2000
109 1600 2000
110 1600 2000
111 1600 2000
112 1600 2000
113 1600 2000
114 1600 2000
115 1600 2000
116 1600 2000
117 1600 2000
118 1600 2000
119 1600 2000
120 1500 2000
121 1500 2000
122 1500 2000
123 1500 2000
124 1500 2000
125 1500 2000
126 1500 2000
127 1500 2000
128 1500 2000
129 1500 2000
130 1600 2000
131 1600 2000
132 1600 2000
133 1600 2000
134 1600 2000
135 1600 2000
136 1600 2000
137 1600 2000
138 1600 2000
139 1600 2000
140 1600 2000
141 1600 2000
142 1600 2000
143 1600 2000
144 1500 2000
145 1500 2000
146 1500 2000
147 1500 2000
148 1500 2000
149 1500 2000
150 1500 2000
151 1500 2000
152 1500 2000
153 1500 2000
154 650 2000
155 650 2000
156 640 2000
157 640 2000
158 620 2000
159 620 2000
160 610 2000
161 610 2000
162 600 2000
163 600 2000
164 590 2000
165 590 2000
166 580 2000
167 580 2000
168 560 2000
169 560 2000
170 550 2000
171 550 2000
172 540 2000
173 540 2000
174 530 2000
175 530 2000
176 520 2000
177 520 2000
178 640 2000
179 640 2000
180 630 2000
181 630 2000
182 620 2000
183 620 2000
184 610 2000
185 610 2000
186 590 2000
187 590 2000
188 580 2000
189 580 2000
190 570 2000
191 570 2000
192 560 2000
193 560 2000
194 550 2000
195 550 2000
196 540 2000
197 540 2000
198 520 2000
199 520 2000
200 510 2000
201 510 2000
202 1600 170
203 1600 160
204 1600 170
205 1600 160
206 1600 170
207 1600 160
208 1600 170
209 1600 160
210 1600 170
211 1600 160
212 1600 170
213 1600 160
214 1600 170
215 1600 160
216 1500 170
217 1500 160
218 1500 170
219 1500 160
220 1500 170
221 1500 160
222 1500 170
223 1500 160
224 1500 170
225 1500 160
226 1600 160
227 1600 150
228 1600 160
229 1600 150
230 1600 160
231 1600 150
232 1600 160
233 1600 150
234 1600 160
235 1600 150
236 1600 160
237 1600 150
238 1600 160
239 1600 150
240 1500 160
241 1500 150
242 1500 160
243 1500 150
244 1500 160
245 1500 150
246 1500 160
247 1500 150
248 1500 160
249 1500 150
250 650 170
251 650 160
252 640 170
253 640 160
254 620 170
255 620 160
256 610 170
257 610 160
258 600 170
259 600 160
260 590 170
261 590 160
262 580 170
263 580 160
264 560 170
265 560 160
266 550 170
267 550 160
268 540 170
269 540 160
270 530 170
271 530 160
272 520 170
273 520 160
274 640 160
275 640 150
276 630 160
277 630 150
278 620 160
279 620 150
280 610 160
281 610 150
282 590 160
283 590 150
284 580 160
285 580 150
286 570 160
287 570 150
288 560 160
289 560 150
290 550 160
291 550 150
292 540 160
293 540 150
294 520 160
295 520 150
296 510 160
297 510 150
298 1900 2000
299 1900 2000
300 1900 2000
301 1800 2000
302 1800 2000
303 1800 2000
304 1700 2000
305 1700 2000
306 1700 2000
307 1700 2000
308 1700 2000
309 910 2000
310 900 2000
311 870 2000
312 860 2000
313 850 2000
314 800 2000
315 770 2000
316 740 2000
317 730 2000
318 690 2000
319 670 2000
320 1900 2000
321 1800 2000
322 1800 2000
323 1800 2000
324 890 2000
325 820 2000
326 800 2000
327 770 2000
328 1900 2000
329 1900 2000
330 1800 2000
331 1700 2000
332 1700 2000
333 1700 2000
334 900 2000
335 870 2000
336 860 2000
337 770 2000
338 740 2000
339 720 2000
340 1900 2000
341 1900 2000
342 1900 2000
343 1800 2000
344 1800 2000
345 1800 2000
346 1800 2000
347 1800 2000
348 1800 2000
349 910 2000
350 890 2000
351 880 2000
352 840 2000
353 830 2000
354 820 2000
355 800 2000
356 780 2000
357 770 2000
358 1900 170
359 1900 170
360 1900 170
361 1800 170
362 1800 170
363 1800 170
364 1700 170
365 1700 170
366 1700 170
367 1700 170
368 1700 170
369 910 170
370 900 170
371 870 170
372 860 170
373 850 170
374 800 170
375 770 170
376 740 170
377 730 170
378 690 170
379 670 170
380 1900 160
381 1800 160
382 1800 160
383 1800 160
384 890 160
385 820 160
386 800 160
387 770 160
388 1900 160
389 1900 160
390 1800 160
391 1700 160
392 1700 160
393 1700 160
394 900 160
395 870 160
396 860 160
397 770 160
398 740 160
399 720 160
400 1900 150
401 1900 150
402 1900 150
403 1800 150
404 1800 150
405 1800 150
406 1800 150
407 1800 150
408 1800 150
409 910 150
410 890 150
411 880 150
412 840 150
413 830 150
414 820 150
415 800 150
416 780 150
417 770 150
PICKUP_AND_DELIVERY_SECTION
1 0 0 0 0 0 0
2 0 0 0 0 0 9
3 0 0 0 0 11 0
4 0 0 0 0 0 12
5 0 0 0 0 18 0
6 0 0 0 0 0 24
7 0 0 0 0 28 0
8 0 0 0 0 22 0
9 0 0 0 0 2 0
10 0 0 0 0 0 71
11 0 0 0 0 0 3
12 0 0 0 0 4 0
13 0 0 0 0 0 19
14 0 0 0 0 0 30
15 0 0 0 0 0 23
16 0 0 0 0 0 351
17 0 0 0 0 352 0
18 0 0 0 0 0 5
19 0 0 0 0 13 0
20 0 0 0 0 0 31
21 0 0 0 0 0 57
22 0 0 0 0 0 8
23 0 0 0 0 15 0
24 0 0 0 0 6 0
25 0 0 0 0 26 0
26 0 0 0 0 0 25
27 0 0 0 0 29 0
28 0 0 0 0 0 7
29 0 0 0 0 0 27
30 0 0 0 0 14 0
31 0 0 0 0 20 0
32 0 0 0 0 0 45
33 0 0 0 0 35 0
34 0 0 0 0 0 48
35 0 0 0 0 0 33
36 0 0 0 0 50 0
37 0 0 0 0 150 0
38 0 0 0 0 0 369
39 0 0 0 0 0 42
40 0 0 0 0 53 0
41 0 0 0 0 0 47
42 0 0 0 0 39 0
43 0 0 0 0 355 0
44 0 0 0 0 51 0
45 0 0 0 0 32 0
46 0 0 0 0 49 0
47 0 0 0 0 41 0
48 0 0 0 0 34 0
49 0 0 0 0 0 46
50 0 0 0 0 0 36
51 0 0 0 0 0 44
52 0 0 0 0 76 0
53 0 0 0 0 0 40
54 0 0 0 0 0 55
55 0 0 0 0 54 0
56 0 0 0 0 61 0
57 0 0 0 0 21 0
58 0 0 0 0 80 0
59 0 0 0 0 74 0
60 0 0 0 0 62 0
61 0 0 0 0 0 56
62 0 0 0 0 0 60
63 0 0 0 0 97 0
64 0 0 0 0 0 96
65 0 0 0 0 0 89
66 0 0 0 0 70 0
67 0 0 0 0 94 0
68 0 0 0 0 79 0
69 0 0 0 0 0 72
70 0 0 0 0 0 66
71 0 0 0 0 10 0
72 0 0 0 0 69 0
73 0 0 0 0 84 0
74 0 0 0 0 0 59
75 0 0 0 0 0 92
76 0 0 0 0 0 52
77 0 0 0 0 0 102
78 0 0 0 0 87 0
79 0 0 0 0 0 68
80 0 0 0 0 0 58
81 0 0 0 0 0 101
82 0 0 0 0 0 93
83 0 0 0 0 0 85
84 0 0 0 0 0 73
85 0 0 0 0 83 0
86 0 0 0 0 0 98
87 0 0 0 0 0 78
88 0 0 0 0 0 105
89 0 0 0 0 65 0
90 0 0 0 0 91 0
91 0 0 0 0 0 90
92 0 0 0 0 75 0
93 0 0 0 0 82 0
94 0 0 0 0 0 67
95 0 0 0 0 384 0
96 0 0 0 0 64 0
97 0 0 0 0 0 63
98 0 0 0 0 86 0
99 0 0 0 0 236 0
100 0 0 0 0 0 104
101 0 0 0 0 81 0
102 0 0 0 0 77 0
103 0 0 0 0 208 0
104 0 0 0 0 100 0
105 0 0 0 0 88 0
106 0 0 0 0 146 0
107 0 0 0 0 133 0
108 0 0 0 0 130 0
109 0 0 0 0 116 0
110 0 0 0 0 0 139
111 0 0 0 0 141 0
112 0 0 0 0 136 0
113 0 0 0 0 135 0
114 0 0 0 0 0 380
115 0 0 0 0 137 0
116 0 0 0 0 0 109
117 0 0 0 0 119 0
118 0 0 0 0 0 277
119 0 0 0 0 0 117
120 0 0 0 0 129 0
121 0 0 0 0 0 147
122 0 0 0 0 145 0
123 0 0 0 0 148 0
124 0 0 0 0 0 128
125 0 0 0 0 0 144
126 0 0 0 0 0 151
127 0 0 0 0 142 0
128 0 0 0 0 124 0
129 0 0 0 0 0 120
130 0 0 0 0 0 108
131 0 0 0 0 0 132
132 0 0 0 0 131 0
133 0 0 0 0 0 107
134 0 0 0 0 0 138
135 0 0 0 0 0 113
136 0 0 0 0 0 112
137 0 0 0 0 0 115
138 0 0 0 0 134 0
139 0 0 0 0 110 0
140 0 0 0 0 149 0
141 0 0 0 0 0 111
142 0 0 0 0 0 127
143 0 0 0 0 0 153
144 0 0 0 0 125 0
145 0 0 0 0 0 122
146 0 0 0 0 0 106
147 0 0 0 0 121 0
148 0 0 0 0 0 123
149 0 0 0 0 0 140
150 0 0 0 0 0 37
151 0 0 0 0 126 0
152 0 0 0 0 0 331
153 0 0 0 0 143 0
154 0 0 0 0 173 0
155 0 0 0 0 162 0
156 0 0 0 0 179 0
157 0 0 0 0 0 318
158 0 0 0 0 170 0
159 0 0 0 0 0 160
160 0 0 0 0 159 0
161 0 0 0 0 0 183
162 0 0 0 0 0 155
163 0 0 0 0 0 185
164 0 0 0 0 0 184
165 0 0 0 0 296 0
166 0 0 0 0 190 0
167 0 0 0 0 0 171
168 0 0 0 0 0 191
169 0 0 0 0 188 0
170 0 0 0 0 0 158
171 0 0 0 0 167 0
172 0 0 0 0 0 200
173 0 0 0 0 0 154
174 0 0 0 0 201 0
175 0 0 0 0 0 177
176 0 0 0 0 198 0
177 0 0 0 0 175 0
178 0 0 0 0 194 0
179 0 0 0 0 0 156
180 0 0 0 0 0 182
181 0 0 0 0 0 319
182 0 0 0 0 180 0
183 0 0 0 0 161 0
184 0 0 0 0 164 0
185 0 0 0 0 163 0
186 0 0 0 0 187 0
187 0 0 0 0 0 186
188 0 0 0 0 0 169
189 0 0 0 0 192 0
190 0 0 0 0 0 166
191 0 0 0 0 168 0
192 0 0 0 0 0 189
193 0 0 0 0 195 0
194 0 0 0 0 0 178
195 0 0 0 0 0 193
196 0 0 0 0 0 197
197 0 0 0 0 196 0
198 0 0 0 0 0 176
199 0 0 0 0 0 315
200 0 0 0 0 172 0
201 0 0 0 0 0 174
202 0 0 0 0 376 0
203 0 0 0 0 390 0
204 0 0 0 0 0 228
205 0 0 0 0 226 0
206 0 0 0 0 0 365
207 0 0 0 0 0 240
208 0 0 0 0 0 103
209 0 0 0 0 0 229
210 0 0 0 0 213 0
211 0 0 0 0 0 233
212 0 0 0 0 234 0
213 0 0 0 0 0 210
214 0 0 0 0 0 219
215 0 0 0 0 235 0
216 0 0 0 0 0 241
217 0 0 0 0 238 0
218 0 0 0 0 0 220
219 0 0 0 0 214 0
220 0 0 0 0 218 0
221 0 0 0 0 223 0
222 0 0 0 0 0 245
223 0 0 0 0 0 221
224 0 0 0 0 242 0
225 0 0 0 0 0 248
226 0 0 0 0 0 205
227 0 0 0 0 246 0
228 0 0 0 0 204 0
229 0 0 0 0 209 0
230 0 0 0 0 0 232
231 0 0 0 0 239 0
232 0 0 0 0 230 0
233 0 0 0 0 211 0
234 0 0 0 0 0 212
235 0 0 0 0 0 215
236 0 0 0 0 0 99
237 0 0 0 0 0 243
238 0 0 0 0 0 217
239 0 0 0 0 0 231
240 0 0 0 0 207 0
241 0 0 0 0 216 0
242 0 0 0 0 0 224
243 0 0 0 0 237 0
244 0 0 0 0 247 0
245 0 0 0 0 222 0
246 0 0 0 0 0 227
247 0 0 0 0 0 244
248 0 0 0 0 225 0
249 0 0 0 0 393 0
250 0 0 0 0 0 379
251 0 0 0 0 274 0
252 0 0 0 0 257 0
253 0 0 0 0 254 0
254 0 0 0 0 0 253
255 0 0 0 0 0 398
256 0 0 0 0 0 260
257 0 0 0 0 0 252
258 0 0 0 0 281 0
259 0 0 0 0 285 0
260 0 0 0 0 256 0
261 0 0 0 0 283 0
262 0 0 0 0 265 0
263 0 0 0 0 0 287
264 0 0 0 0 0 270
265 0 0 0 0 0 262
266 0 0 0 0 0 284
267 0 0 0 0 291 0
268 0 0 0 0 0 273
269 0 0 0 0 293 0
270 0 0 0 0 264 0
271 0 0 0 0 272 0
272 0 0 0 0 0 271
273 0 0 0 0 268 0
274 0 0 0 0 0 251
275 0 0 0 0 0 276
276 0 0 0 0 275 0
277 0 0 0 0 118 0
278 0 0 0 0 0 279
279 0 0 0 0 278 0
280 0 0 0 0 0 282
281 0 0 0 0 0 258
282 0 0 0 0 280 0
283 0 0 0 0 0 261
284 0 0 0 0 266 0
285 0 0 0 0 0 259
286 0 0 0 0 0 294
287 0 0 0 0 263 0
288 0 0 0 0 289 0
289 0 0 0 0 0 288
290 0 0 0 0 0 292
291 0 0 0 0 0 267
292 0 0 0 0 290 0
293 0 0 0 0 0 269
294 0 0 0 0 286 0
295 0 0 0 0 297 0
296 0 0 0 0 0 165
297 0 0 0 0 0 295
298 0 0 0 0 308 0
299 0 0 0 0 300 0
300 0 0 0 0 0 299
301 0 0 0 0 321 0
302 0 0 0 0 0 346
303 0 0 0 0 0 343
304 0 0 0 0 0 340
305 0 0 0 0 0 348
306 0 0 0 0 323 0
307 0 0 0 0 0 332
308 0 0 0 0 0 298
309 0 0 0 0 326 0
310 0 0 0 0 353 0
311 0 0 0 0 336 0
312 0 0 0 0 0 334
313 0 0 0 0 0 335
314 0 0 0 0 0 356
315 0 0 0 0 199 0
316 0 0 0 0 345 0
317 0 0 0 0 0 324
318 0 0 0 0 157 0
319 0 0 0 0 181 0
320 0 0 0 0 0 342
321 0 0 0 0 0 301
322 0 0 0 0 0 347
323 0 0 0 0 0 306
324 0 0 0 0 317 0
325 0 0 0 0 0 350
326 0 0 0 0 0 309
327 0 0 0 0 338 0
328 0 0 0 0 344 0
329 0 0 0 0 373 0
330 0 0 0 0 341 0
331 0 0 0 0 152 0
332 0 0 0 0 307 0
333 0 0 0 0 339 0
334 0 0 0 0 312 0
335 0 0 0 0 313 0
336 0 0 0 0 0 311
337 0 0 0 0 0 349
338 0 0 0 0 0 327
339 0 0 0 0 0 333
340 0 0 0 0 304 0
341 0 0 0 0 0 330
342 0 0 0 0 320 0
343 0 0 0 0 303 0
344 0 0 0 0 0 328
345 0 0 0 0 0 316
346 0 0 0 0 302 0
347 0 0 0 0 322 0
348 0 0 0 0 305 0
349 0 0 0 0 337 0
350 0 0 0 0 325 0
351 0 0 0 0 16 0
352 0 0 0 0 0 17
353 0 0 0 0 0 310
354 0 0 0 0 357 0
355 0 0 0 0 0 43
356 0 0 0 0 314 0
357 0 0 0 0 0 354
358 0 0 0 0 0 382
359 0 0 0 0 0 363
360 0 0 0 0 0 362
361 0 0 0 0 0 381
362 0 0 0 0 360 0
363 0 0 0 0 359 0
364 0 0 0 0 368 0
365 0 0 0 0 206 0
366 0 0 0 0 367 0
367 0 0 0 0 0 366
368 0 0 0 0 0 364
369 0 0 0 0 38 0
370 0 0 0 0 0 414
371 0 0 0 0 0 413
372 0 0 0 0 0 396
373 0 0 0 0 0 329
374 0 0 0 0 0 387
375 0 0 0 0 377 0
376 0 0 0 0 0 202
377 0 0 0 0 0 375
378 0 0 0 0 0 415
379 0 0 0 0 250 0
380 0 0 0 0 114 0
381 0 0 0 0 361 0
382 0 0 0 0 358 0
383 0 0 0 0 392 0
384 0 0 0 0 0 95
385 0 0 0 0 0 412
386 0 0 0 0 0 416
387 0 0 0 0 374 0
388 0 0 0 0 0 406
389 0 0 0 0 0 404
390 0 0 0 0 0 203
391 0 0 0 0 407 0
392 0 0 0 0 0 383
393 0 0 0 0 0 249
394 0 0 0 0 409 0
395 0 0 0 0 0 399
396 0 0 0 0 372 0
397 0 0 0 0 0 417
398 0 0 0 0 255 0
399 0 0 0 0 395 0
400 0 0 0 0 401 0
401 0 0 0 0 0 400
402 0 0 0 0 0 408
403 0 0 0 0 405 0
404 0 0 0 0 389 0
405 0 0 0 0 0 403
406 0 0 0 0 388 0
407 0 0 0 0 0 391
408 0 0 0 0 402 0
409 0 0 0 0 0 394
410 0 0 0 0 0 411
411 0 0 0 0 410 0
412 0 0 0 0 385 0
413 0 0 0 0 371 0
414 0 0 0 0 370 0
415 0 0 0 0 378 0
416 0 0 0 0 386 0
417 0 0 0 0 397 0
DEPOT_SECTION
1 
-1
EOF
